c FILE /home/rafael/Documents/HappySet/MIHS/inputs/happygen/output/graph_d_regular_k10_p0.3_v100_20241127_084115.txt
c SOURCE This is a d-regular graph formed for the happy graph colouring problem.
c DESCRIPTION It was generated using the problem generator of Rhyd Lewis
c
c GRAPH STATS
c Seed                             = 1693984750
c Number of Nodes                  = 100
c Number of colours k              = 10
c Number of pre-assignments        = 30
c Degree of all vertices           = 6
c Density                          = 0.0606061
c 
c The degrees of nodes 1 to 100, respectively, are as follows 
c [6, 6, 6, 6, 6, 6, 6, 6, 6, 6, 6, 6, 6, 6, 6, 6, 6, 6, 6, 6, 6, 6, 6, 6, 6, 6, 
c  6, 6, 6, 6, 6, 6, 6, 6, 6, 6, 6, 6, 6, 6, 6, 6, 6, 6, 6, 6, 6, 6, 6, 6, 6, 
c  6, 6, 6, 6, 6, 6, 6, 6, 6, 6, 6, 6, 6, 6, 6, 6, 6, 6, 6, 6, 6, 6, 6, 6, 6, 
c  6, 6, 6, 6, 6, 6, 6, 6, 6, 6, 6, 6, 6, 6, 6, 6, 6, 6, 6, 6, 6, 6, 6, 6] 
c  
p edge 100 300 10
e 1 6
e 1 8
e 1 21
e 1 59
e 1 78
e 1 93
e 2 10
e 2 51
e 2 70
e 2 76
e 2 77
e 2 85
e 3 4
e 3 24
e 3 71
e 3 81
e 3 83
e 3 86
e 4 12
e 4 26
e 4 45
e 4 47
e 4 57
e 5 26
e 5 37
e 5 59
e 5 82
e 5 86
e 5 88
e 6 9
e 6 15
e 6 31
e 6 50
e 6 72
e 7 15
e 7 27
e 7 32
e 7 35
e 7 37
e 7 39
e 8 32
e 8 48
e 8 50
e 8 54
e 8 87
e 9 27
e 9 48
e 9 77
e 9 78
e 9 99
e 10 60
e 10 66
e 10 87
e 10 90
e 10 100
e 11 16
e 11 36
e 11 41
e 11 47
e 11 64
e 11 83
e 12 26
e 12 29
e 12 39
e 12 83
e 12 85
e 13 19
e 13 28
e 13 36
e 13 57
e 13 80
e 13 98
e 14 30
e 14 35
e 14 44
e 14 49
e 14 60
e 14 97
e 15 17
e 15 30
e 15 37
e 15 72
e 16 30
e 16 32
e 16 44
e 16 61
e 16 91
e 17 37
e 17 44
e 17 64
e 17 80
e 17 94
e 18 29
e 18 38
e 18 65
e 18 72
e 18 82
e 18 89
e 19 22
e 19 56
e 19 80
e 19 81
e 19 84
e 20 22
e 20 26
e 20 28
e 20 43
e 20 63
e 20 84
e 21 34
e 21 35
e 21 44
e 21 72
e 21 94
e 22 56
e 22 65
e 22 85
e 22 90
e 23 33
e 23 34
e 23 54
e 23 60
e 23 79
e 23 83
e 24 36
e 24 44
e 24 84
e 24 94
e 24 96
e 25 40
e 25 48
e 25 56
e 25 58
e 25 65
e 25 68
e 26 69
e 26 86
e 27 28
e 27 54
e 27 73
e 27 90
e 28 55
e 28 68
e 28 75
e 29 39
e 29 41
e 29 55
e 29 85
e 30 58
e 30 72
e 30 95
e 31 69
e 31 70
e 31 73
e 31 81
e 31 84
e 32 53
e 32 66
e 32 73
e 33 38
e 33 43
e 33 51
e 33 64
e 33 96
e 34 43
e 34 50
e 34 55
e 34 68
e 35 47
e 35 88
e 35 93
e 36 52
e 36 63
e 36 97
e 37 87
e 37 92
e 38 62
e 38 73
e 38 79
e 38 81
e 39 75
e 39 94
e 39 98
e 40 54
e 40 61
e 40 74
e 40 81
e 40 100
e 41 46
e 41 56
e 41 67
e 41 89
e 42 47
e 42 54
e 42 58
e 42 82
e 42 94
e 42 98
e 43 48
e 43 79
e 43 83
e 44 59
e 45 52
e 45 65
e 45 76
e 45 81
e 45 99
e 46 49
e 46 52
e 46 53
e 46 85
e 46 94
e 47 50
e 47 87
e 48 63
e 48 80
e 49 51
e 49 53
e 49 57
e 49 63
e 50 61
e 50 79
e 51 65
e 51 76
e 51 95
e 52 66
e 52 67
e 52 93
e 53 59
e 53 63
e 53 74
e 54 96
e 55 70
e 55 84
e 55 93
e 56 74
e 56 99
e 57 61
e 57 92
e 57 95
e 58 59
e 58 64
e 58 78
e 59 96
e 60 61
e 60 91
e 60 100
e 61 92
e 62 67
e 62 85
e 62 90
e 62 95
e 62 99
e 63 70
e 64 75
e 64 89
e 65 95
e 66 73
e 66 76
e 66 88
e 67 72
e 67 87
e 67 97
e 68 76
e 68 84
e 68 89
e 69 75
e 69 77
e 69 92
e 69 93
e 70 80
e 70 82
e 71 74
e 71 79
e 71 91
e 71 98
e 71 100
e 73 78
e 74 88
e 74 97
e 75 87
e 75 89
e 76 79
e 77 88
e 77 91
e 77 100
e 78 82
e 78 92
e 80 93
e 82 96
e 83 86
e 86 99
e 86 100
e 88 97
e 89 91
e 90 92
e 90 98
e 91 96
e 95 99
e 97 98
n 5 6
n 6 7
n 8 4
n 10 7
n 12 10
n 13 8
n 16 2
n 18 7
n 25 7
n 35 3
n 37 6
n 41 4
n 46 4
n 61 2
n 62 1
n 64 2
n 65 7
n 68 7
n 69 2
n 70 1
n 72 7
n 73 9
n 75 2
n 81 9
n 84 7
n 96 5
n 97 8
n 98 8
n 99 1
n 100 7
